c Random generated cnf formula, satisfiable: true
p cnf 10 50
-6 -2 -4 0
3 4 -9 0
-1 -3 5 0
8 -1 -5 0
10 1 6 0
1 10 6 0
9 -7 4 0
5 6 -4 0
7 -5 -3 0
-9 1 -4 0
1 -9 -3 0
10 -5 -4 0
4 -5 3 0
-2 1 -6 0
-1 -6 7 0
-2 -10 8 0
-1 9 -8 0
8 5 6 0
-1 6 2 0
7 -2 -1 0
10 -8 1 0
1 5 -3 0
-7 5 6 0
6 -3 7 0
-6 7 -4 0
-3 1 -10 0
-3 1 -2 0
-10 3 -9 0
-7 -3 -8 0
2 10 8 0
-5 -6 -7 0
1 -10 2 0
-9 7 3 0
-8 5 4 0
-2 -6 -8 0
-8 -6 -10 0
5 1 -9 0
3 1 -5 0
4 6 7 0
-6 1 -8 0
-1 8 -5 0
3 -5 6 0
-7 -3 1 0
-8 9 -2 0
7 -6 -8 0
1 -2 3 0
-5 -9 3 0
3 -7 -8 0
-6 1 -9 0
-6 5 -9 0
